c Lingeling SAT Solver
c 
c Version ala b02aa1a04343558c4252b5f4a723be021964f652
c 
c Copyright (C) 2010-2012 Armin Biere JKU Linz Austria.
c All rights reserved.
c 
c released Sat Oct 13 14:05:26 CEST 2012
c compiled Sat Feb 16 02:48:12 EST 2013
c 
c gcc (Debian 4.4.5-8) 4.4.5
c -Wall -O3 -DNLGLOG -DNDEBUG -DNCHKSOL -DNLGLPICOSAT 
c Linux greencar2 2.6.32-5-amd64 x86_64
c 
c reading input file p01.cnf
c no embedded options
c found 'p cnf 71160 212627' header
c read 71160 variables, 212627 clauses, 439704 literals in 0.0 seconds
c
c feature vars 71160
c feature lits.total 439704
c feature lits.pos 236102
c feature lits.neg 203602
c feature clauses.total 212627
c feature clauses.unit 28078
c feature clauses.bin 149921
c feature clauses.trn 33928
c feature clauses.lrg 700
c feature cog.val.min 1
c feature cog.val.avg 31709
c feature cog.val.max 67355
c feature cog.var.min 1
c feature cog.var.avg 35581
c feature cog.var.max 71159
c
c
c --abstime=0
c --acts=2
c --actavgmax=120
c --actstdmin=20
c --actstdmax=80
c --agile=23
c --bias=2
c --block=1
c --blkrtc=0
c --blkclslim=2000
c --blkocclim=2000
c --blkmaxeff=2147483647
c --blkmineff=10000000
c --blkreleff=20
c --card=0
c --cce=3
c --ccemaxeff=100000000
c --ccemineff=5000000
c --ccereleff=3
c --check=0
c --cgrclsr=1
c --cgrmaxority=20
c --cgrmaxeff=8000000
c --cgrmineff=200000
c --cgreleff=1
c --cgrexteq=1
c --cgrextand=1
c --cgrextunits=1
c --cgrextite=1
c --cgrextxor=1
c --cliff=1
c --cliffreleff=8
c --cliffmineff=10000000
c --cliffmaxeff=100000000
c --compact=0
c --decompose=1
c --defragint=10000000
c --defragfree=50
c --elim=1
c --elmrtc=0
c --elmblk=1
c --elmclslim=1000
c --elmocclim=1000
c --elmaxeff=100000000
c --elmineff=5000000
c --elmreleff=10
c --sleeponabort=0
c --exitonabort=0
c --flipping=1
c --flipint=2
c --flipdur=50
c --fliptop=1
c --force=0
c --gauss=1
c --gaussextrall=1
c --gaussmaxor=20
c --gaussexptrn=1
c --gaussmaxeff=50000000
c --gaussmineff=2000000
c --gaussreleff=2
c --gluescale=2
c --gluekeep=0
c --inprocessing=1
c --cintinc=10000
c --irrlim=20
c --lift=1
c --lftmaxeff=20000000
c --lftmineff=500000
c --lftreleff=6
c --lhbr=1
c --lkhd=1
c --clim=-1
c --mocint=1000
c --move=2
c --log=-1
c --otfs=1
c --phase=0
c --phaseneginit=0
c --plain=0
c --probe=1
c --prbasicmaxeff=100000000
c --prbasicmineff=1000000
c --prbasicreleff=10
c --prbasic=1
c --prbasicroundlim=9
c --queuemergelim=10000
c --queuefactor=833
c --queueinc=20
c --rmincpen=4
c --seed=0
c --smallirr=90
c --smallve=1
c --smallvevars=12
c --randec=1
c --randecint=1000
c --redfixed=0
c --redlbound=0
c --redlexpfac=10
c --redldoutfac=0
c --redloutinc=10000
c --redlinit=1000
c --redlinc=1000
c --redinoutinc=100
c --redlmininc=10
c --redlmaxinc=200
c --redlminrel=10
c --redlmaxrel=300
c --redlminabs=500
c --redlmaxabs=1000000
c --reduce=1
c --restart=2
c --restartint=5
c --rstinoutinc=110
c --simplify=1
c --simpdelay=100
c --simpen=4
c --sizepen=1000000
c --sizemaxpen=3
c --sortlits=0
c --syncint=111111
c --termint=122222
c --ternres=1
c --ternresrtc=0
c --trnrmineff=4000000
c --trnrmaxeff=40000000
c --trnreleff=10
c --transred=1
c --trdmineff=100000
c --trdmaxeff=2000000
c --trdreleff=10
c --unhide=1
c --unhdextstamp=1
c --unhdhbr=0
c --unhdmaxeff=20000000
c --unhdmineff=1000000
c --unhdreleff=4
c --unhdlnpr=3
c --unhdroundlim=5
c --verbose=1
c --witness=1
c [limits] no conflict limit
c [limits] simplification delayed by 100 to 100 conflicts
c 
c  seconds         irredundant          redundant clauses agility   height
c          variables clauses conflicts large binary ternary    glue         MB
c 
c *    0.0   35328   142083         0       0      0     0  30  0.0   0.0   14
c [cut-width] 46627, max 80685, min4 21436 at 75%, min10 14853 at 85%
c [decision-order] bias 1, old 1
c [queue-schedule-all-variables]
c s    0.0   35328   142083         0       0      0     0  30  0.0   0.0   14
c [simplification-1] limit hit at 100 conflicts
c [simplification-1] simplification penalty of 4
c [ternres-1] limit 4000000 with penalty 0 = 0 + 0
c [ternres-1] all 35328 free variables schedulable
c [ternres-1] 0 ternary resolvents (0 bin, 0 trn)
c [ternres-1] fully completed ternary resolution
c [gauss-1] limit 2000000 penalty 0 = 0 + 0
c [gauss-1] extracted 133992 xors of average arity 2.0
c [gauss-1] connected 268056 occurrences of 35228 variables (average 7.6)
c [gauss-1] limit 2000000 penalty 0 = 0 + 0
c [gauss-1] exported 0 unary, 0 binary and 0 ternary equations
c G    0.4   35328   132203       100      92      1     7  14  5.5  89.0   10
c d    0.5   15362    65243       100      92      1     4  14  5.5  89.0    8
c [basicprobe-1] limit 1000000 penalty 0 = 0 + 0
c [basicprobe-1-0] 1750 probes remain 11% after last round
c [basicprobe-1-0] 4 units = 4 failed (100%) + 0 lifted (0%)
c [basicprobe-1-0] removed 6 variables, found 3138 hbrs
c p    0.5   15356    65243       100      92   3139     2  14  5.5  89.0    9
c [cgrclsr-1] limit 200000 penalty 0 = 0 + 0
c [cgrclsr-1] all 15356 free variables schedulable
c [cgrclsr-1] fully completed congruence closure
c [lift-1] limit 500000 with penalty 0 = 0 + 0
c [lift-1] using 15356 probes 100%
c [lift-1] 15256 variables remain 99% (94 retained)
c [lift-1] removed 6 variables
c ^    0.6   15350    65183       100      92   3416     0  14  5.5  89.0    8
c [cliff-1] limit of 10000000 steps penalty 0 = 0 + 0
c [cliff-1] failed 20, lifted 17
c K    1.0   15267    65183       100      92  10999     0  14  5.5  89.0    9
c [unhide-1] limit 1000000 with penalty 0 = 0 + 0
c [unhide-1-3] 0 units, 0 failed, 7252 tauts, 0 hbrs, 183 literals
c u    1.0   15267    60318       100      91   7967     1  14  5.5  89.0    9
c [transred-1] limit 100000 with penalty 0 = 0 + 0
c t    1.1   15267    60318       100      91   7951     1  14  5.5  89.0    9
c [block-1] scheduling all variables this time
c [block-1] scheduled 15267 variables 100%
c [block-1] limit of 10000000 steps penalty 0 = 0 + 0
c [block-1] fully completed blocked clause elimination
c [block-1] transition to [ all 0 rem 0 ] state
c [block-1] eliminated 2000 blocked clauses
c k    1.1   15267    58318       100      91   7952  2000  14  5.5  89.0    8
c [cce-1] scheduling all variables this time
c [cce-1] limit of 10000000 steps penalty 0 = 0 + 0
c [cce-1] incomplete covered clause elimination 11083 not tried 73%
c [cce-1] transition to [ all 1 rem 1 ] state
c [cce-1] eliminated 1277 covered clauses
c E    1.4   15137    57041       100      91  12075  1999  14  5.5  89.0    8
c [elim-1] scheduling all variables this time
c [elim-1] scheduled 15137 variables 100%
c [elim-1] limit of 5000000 steps penalty 0 = 0 + 0
c [elim-1] incomplete variable elimination 3894 not tried 26%
c [elim-1] transition to [ all 1 rem 1 ] state
c [elim-1] eliminated 3532 = 23% variables out of 15137
c e    2.3   11605    54975       100      58   3425   238  14  5.5  89.0    8
c [phase-1] phase bias: 197 positive 18%, 872 negative 82%
c [simplification-1] removed 23723 variables 67%
c [simplification-1] limit increments divided by 34
c [simplification-1] arithmetic increase of conflict limit interval by 294
c [simplification-1] new irredundant limit 645890
c [simplification-1] new conflict limit 394
c [simplification-1] simplification penalty reduced to 3
c R    2.3   11605    54975       164     108   3432   245  14  4.7  71.0    9
c [simplification-2] limit hit at 395 conflicts
c [simplification-2] simplification penalty of 3
c [ternres-2] limit 2000000 with penalty 1 = 1 + 0
c [ternres-2] all 11605 free variables schedulable
c [ternres-2] 372 ternary resolvents (2 bin, 370 trn)
c [ternres-2] fully completed ternary resolution
c T    2.3   11605    54975       395     314   3441   632  10  5.2  72.4    9
c [gauss-2] limit 1000000 penalty 1 = 1 + 0
c [gauss-2] extracted 599 xors of average arity 3.0
c [gauss-2] connected 1800 occurrences of 636 variables (average 2.8)
c [gauss-2] limit 1000000 penalty 1 = 1 + 0
c [gauss-2] fully completed
c [gauss-2] exported 0 unary, 0 binary and 0 ternary equations
c G    2.4   11605    54975       395     314   3441   632  10  5.2  72.4    8
c [basicprobe-2] limit 1000000 penalty 0 = 0 + 0
c [basicprobe-2-0] 1401 probes remain 12% after last round
c [basicprobe-2-0] removed 0 variables, found 732 hbrs
c p    2.4   11605    54975       395     314   4173   627  10  5.2  72.4    9
c [cgrclsr-2] limit 100000 penalty 1 = 1 + 0
c [cgrclsr-2] all 11605 free variables schedulable
c [cgrclsr-2] fully completed congruence closure
c [lift-2] limit 500000 with penalty 0 = 0 + 0
c [lift-2] using 11532 probes 99%
c [lift-2] 11409 variables remain 98% (196 retained)
c [cliff-2] limit of 10000000 steps penalty 0 = 0 + 0
c [cliff-2] failed 1, lifted 0
c K    2.9   11603    54975       395     314   5811   624  10  5.2  72.4    9
c [unhide-2] limit 1000000 with penalty 0 = 0 + 0
c [unhide-2-7] 0 units, 0 failed, 987 tauts, 0 hbrs, 316 literals
c u    3.0   11603    54506       395     304   5265   606  10  5.2  72.4    9
c [transred-3] limit 100000 with penalty 0 = 0 + 0
c t    3.0   11603    54502       395     304   5260   606  10  5.2  72.4    9
c [block-2] scheduling all variables this time
c [block-2] scheduled 11603 variables 100%
c [block-2] limit of 10000000 steps penalty 0 = 0 + 0
c [block-2] fully completed blocked clause elimination
c [block-2] transition to [ all 0 rem 0 ] state
c [block-2] eliminated 0 blocked clauses
c [cce-2] 9894 variables 85% will be scheduled this time
c [cce-2] limit of 10000000 steps penalty 0 = 0 + 0
c [cce-2] 7711 variables 66% remain to be tried next time
c [cce-2] transition to [ all 0 rem 1 ] state
c [cce-2] eliminated 961 covered clauses
c E    3.4   11600    53541       395     304   6210   606  10  5.2  72.4    8
c [elim-2] 3816 variables 33% will be scheduled this time
c [elim-2] scheduled 3816 variables 33%
c [elim-2] limit of 5000000 steps penalty 0 = 0 + 0
c [elim-2] fully completed variable elimination
c [elim-2] transition to [ all 0 rem 0 ] state
c [elim-2] eliminated 62 = 1% variables out of 11600
c e    3.7   11538    53454       395     297   6068   594  10  5.2  72.4    8
c [phase-2] phase bias: 37 positive 95%, 2 negative 5%
c [simplification-2] removed 67 variables 0%
c [simplification-2] no reduction of limit increments
c [simplification-2] arithmetic increase of conflict limit interval by 10000
c [simplification-2] new irredundant limit 645890
c [simplification-2] new conflict limit 10689
c [simplification-2] simplification penalty reduced to 2
c R    3.7   11538    53454       409     310   6069   594  10  5.3  72.2    9
c R    3.7   11538    53454       973     804   6089   639   9  5.5  65.8    9
c 
c  seconds         irredundant          redundant clauses agility   height
c          variables clauses conflicts large binary ternary    glue         MB
c 
c -    3.8   11538    53454      1228     501   6109   673   8  5.2  61.8    9
c R    3.9   11538    53454      2267    1470   6124   723  11  8.5  60.2   10
c -    4.1   11538    53454      4079    1538   6203   839   8  7.5  60.5    9
c R    4.2   11538    53454      5201    2647   6204   850  10  8.1  60.7   10
c -    4.5   11538    53454      7621    2503   6222   893  11  7.7  54.1    9
c i    4.8   11537    53453     10316    5146   6234   930  15  7.7  49.7   10
c [simplification-3] limit hit at 10689 conflicts
c [simplification-3] simplification penalty of 2
c [ternres-3] limit 4000000 with penalty 0 = 0 + 0
c [ternres-3] all 11537 free variables schedulable
c [ternres-3] 106 ternary resolvents (0 bin, 106 trn)
c [ternres-3] fully completed ternary resolution
c T    4.8   11537    53453     10689    5518   6234  1037  13  7.9  49.4   10
c [gauss-3] limit 500000 penalty 2 = 2 + 0
c [gauss-3] extracted 395 xors of average arity 3.0
c [gauss-3] connected 1185 occurrences of 676 variables (average 1.8)
c [gauss-3] limit 500000 penalty 2 = 2 + 0
c [gauss-3] fully completed
c [gauss-3] exported 0 unary, 0 binary and 0 ternary equations
c G    4.9   11537    53442     10689    5041   6228  1023  13  7.9  49.4    9
c [basicprobe-3] limit 500000 penalty 1 = 1 + 0
c [basicprobe-3-0] 1132 probes remain 10% after last round
c [basicprobe-3-0] removed 0 variables, found 199 hbrs
c p    4.9   11537    53442     10689    5041   6427  1016  13  7.9  49.4   10
c [cgrclsr-3] limit 50000 penalty 2 = 2 + 0
c [cgrclsr-3] all 11537 free variables schedulable
c [cgrclsr-3] fully completed congruence closure
c [lift-3] limit 250000 with penalty 1 = 1 + 0
c [lift-3] using 11344 probes 98%
c [lift-3] 11284 variables remain 98% (253 retained)
c [cliff-3] limit of 10000000 steps penalty 0 = 0 + 0
c [cliff-3] failed 0, lifted 0
c [unhide-3] limit 1000000 with penalty 0 = 0 + 0
c [unhide-3-10] 0 units, 0 failed, 328 tauts, 0 hbrs, 8162 literals
c u    5.6   11537    53336     10689    4993   7041   952  13  7.9  49.4   10
c [transred-5] limit 266092 with penalty 0 = 0 + 0
c t    5.6   11537    53321     10689    4993   7027   952  13  7.9  49.4   10
c [block-3] scheduling all variables this time
c [block-3] scheduled 11537 variables 100%
c [block-3] limit of 5000000 steps penalty 1 = 1 + 0
c [block-3] fully completed blocked clause elimination
c [block-3] transition to [ all 0 rem 0 ] state
c [block-3] eliminated 0 blocked clauses
c [cce-3] scheduling all variables this time
c [cce-3] limit of 10000000 steps penalty 0 = 0 + 0
c [cce-3] 7325 variables 63% remain to be tried next time
c [cce-3] transition to [ all 1 rem 1 ] state
c [cce-3] eliminated 115 covered clauses
c E    6.1   11537    53206     10689    4993   7185   949  13  7.9  49.4    9
c [elim-3] scheduling all variables this time
c [elim-3] scheduled 11537 variables 100%
c [elim-3] limit of 5000000 steps penalty 0 = 0 + 0
c [elim-3] incomplete variable elimination 2232 not tried 19%
c [elim-3] transition to [ all 1 rem 1 ] state
c [elim-3] eliminated 729 = 6% variables out of 11537
c e    7.6   10808    52669     10689    4451   6107   928  13  7.9  49.4    9
c [simplification-3] removed 729 variables 6%
c [simplification-3] limit increments divided by 4
c [simplification-3] arithmetic increase of conflict limit interval by 2500
c [simplification-3] new irredundant limit 645890
c [simplification-3] new conflict limit 23483
c [simplification-3] simplification penalty reduced to 1
c R    7.8   10808    52669     11725    5484   6108   930  12  8.1  48.5   10
c -    8.1   10808    52669     13280    3509   6117   949  11  8.0  46.2   10
c i    8.7   10807    52668     17444    7624   6130   982  11  8.1  42.3   10
c i    8.9   10683    52667     18232    8394   6131   998  11  8.2  41.7   11
c i    9.0   10682    52667     18558    8711   6132  1004  11  8.2  41.4   11
c i    9.0   10673    52666     18673    8822   6133  1006  10  8.2  41.3   11
c -    9.0   10673    52666     18873    4511   6140  1011  12  8.2  41.2   10
c i    9.0   10672    52666     18931    4564   6143  1011  12  8.2  41.1   10
c i    9.1   10671    52665     19655    5266   6152  1023  10  8.2  40.6   10
c i    9.2   10670    52664     20105    5702   6156  1032  10  8.2  40.2   10
c 
c  seconds         irredundant          redundant clauses agility   height
c          variables clauses conflicts large binary ternary    glue         MB
c 
c i    9.3   10669    52663     20488    6063   6165  1044  10  8.2  40.0   10
c i    9.3   10668    52662     20573    6142   6169  1045  10  8.2  39.9   10
c i    9.3   10614    52661     20588    6154   6170  1046  10  8.2  39.9   10
c i    9.3   10613    52660     20662    6227   6170  1046  10  8.2  39.9   10
c i    9.3   10612    52659     20665    6229   6170  1046  10  8.2  39.9   10
c i    9.3   10611    52658     20706    6269   6170  1046  10  8.2  39.8   10
c i    9.3   10610    52657     20740    6299   6172  1047  10  8.2  39.8   10
c i    9.3   10602    52656     20908    6458   6175  1051  10  8.2  39.7   10
c i    9.4   10601    52655     21149    6678   6183  1062  10  8.2  39.5   10
c i    9.4   10592    52654     21238    6760   6185  1066  10  8.2  39.5   10
c i    9.4   10591    52654     21462    6974   6187  1071  11  8.1  39.3   10
c i    9.4   10512    52653     21574    7075   6191  1076  11  8.1  39.3   10
c i    9.4   10092    52652     21579    7079   6191  1076  11  8.1  39.3   10
c i    9.4   10091    52651     21597    7088   6194  1081  11  8.1  39.3   10
c 0    9.4   10034    52651     21597    7088   6194  1081  11  8.1  39.3   10
c 
c  seconds         irredundant          redundant clauses agility   height
c          variables clauses conflicts large binary ternary    glue         MB
c 
c blkd: 3 bces, 2000 removed, 531283 resolutions, 1464743 steps
c blkd: 2000 blocking literals 1%, 0 pure
c cces: 3 cces, 1799 eliminated, 1799 ate 100%, 0 abce 0%
c cces: 20399 probed, 0 lifted, 76 failed
c clff: 3 cliffs, 17 lifted, 21 failed
c clff: 34510 decisions, 30003990 steps
c clls: 1 sat, 0 simp, 0 freeze, 0 melt
c clls: 652331 add, 0 assume,, 0 deref, 0 failed
c clls: 0 cassume, 0 mosat
c coll: 21 gcs, 0 rescored clauses
c cgrs: 3 count, 350017 esteps, 120420 csteps
c cgrs: 0 eqs, 0 units
c cgrs: 0 matched (0 ands 0%, 0 xors 0%, 0 ites 0%)
c cgrs: 0 simplified (0 ands 0%, 0 xors 0%, 0 ites 0%)
c cgrs: 3765 extracted (3122 ands 83%, 643 xors 17%, 0 ites 0%)
c dcps: 3 decompositions, 19966 equivalent 28%
c decs: 72107 decision, 72 random 0.100%
c decs: 21462 flipped 29.764% (in 116 phases)
c elms: 3 elims, 4323 eliminated 6%
c elms: 4323 small 100%, 0 large 0%
c elms: 21193 tried small, 4323 succeeded 20%, 16870 failed 80%
c elms: 48 subsumed, 41 strengthened, 0 blocked
c elms: 430157 copies, 344525 resolutions, 699165 ipos
c elms: 13059 subchks, 3117 strchks
c frcs: 0 computed, 20.4 - 79.6 average min-cut range
c gaus: 3 extractions, 134986 extracted, 2.0 size, 4 max
c gaus: exported 0 units, 0 binary and 0 ternary equations
c gaus: 0 gc, 5453206 steps, 2726603 extr 50%, 2235319 elim 41%
c glue: 8.1 avg, 3.0 scaled avg
c glue: 0 maxredglue=15 (0%)
c lift: 3 phases, 1664 probed (557 level1 33%, 1107 level2 67%)
c lift: 3 units, 0 equivalences, 8 implications
c hbrs: 19226 hbrs = 19226 trn 100% + 0 lrg 0%, 61 sub 0%
c lrnd: 21539 clauses, 11173 uips 52%, 21.8 length, 8.1 glue
c ints: 1020 luby (155018 steps), 0 inout (0 steps)
c mins: 470174 learned lits, 36% minimized
c move: moved 3799, 1800 binary 47%, 1999 ternary 53%
c otfs: str 403 dyn (360 red, 43 irr) 58 drv 14%, 345 rst 86%
c otfs: sub 3 dyn (3 red, 0 irr)
c phas: 2 computed, 1186 set, 234 pos (20%), 952 neg (80%)
c prbs: 3 basic, 2522 probed, 4 failed, 0 lifted
c prps: 19253007 props, 116 props/dec
c prps: 43% srch, 57% simp, 0% lkhd
c psns: 1674333 searches, 211077 hits, 13% hit rate
c queu: 261888 new, 121516 del, 120 maximum priority
c queu: 140329 merged, 133098 collected, 16 gcs
c queu: 21942 deprioritized, 53.2 lines on average
c reds: 5 count, 0 reset, 5 acts 100%, 0 exp 0%
c reds: 5 arithmetic 100%, 5 double 100%
c rmbd: 107 removed, 83 red 78%
c rsts: 977 restarts 96%, 42 skipped 4%
c rsts: 339 kept 34.7% average 32.5%
c simp: 3 count (0 ilim 0%, 0 plim 0%, 3 clim 100%)
c trnr: 3 count, 2 bin, 476 trn, 2328620 steps
c tops: 36837 fixed 52%, 22 iterations
c trds: 6 transitive reductions, 54 removed, 0 failed
c trds: 1472 nodes, 2208 edges, 466571 steps
c unhd: 3 count, 10 rounds, 3205982 steps
c unhd: 12 non-trivial sccs of average size 2.0
c unhd: 0 units, 0 bin, 0 trn, 0 lrg
c unhd: 0 failed, 0 stamp, 0 lits, 0 bin, 0 trn, 0 lrg
c unhd: 8567 tauts, 12 bin 0%, 292 trn 3%, 55 lrg 1%
c unhd: 8567 tauts, 8208 stamp 96%, 3601 red 42%
c unhd: 0 hbrs, 0 trn 0%, 0 lrg 0%, 0 red 0%
c unhd: 8661 strd, 0 bin 0%, 91 trn 1%, 8570 lrg 99%, 8564 red 99%
c vars: 10034 remaining 14% and 61126 removed 86% out of 71160
c vars: 36837 fixed 52%, 4323 eliminated 6%, 19966 equivalent 28%
c vsts: 96515305 visits, 52% srch, 48% simp, 0% lkhd
c vsts: 6.0 search visits per propagation 2339.1 per conflict
c wchs: 17982845 pushed, 1758966 enlarged, 33 defrags
c 
c scaledglue  added       reduced       forcing      resolved     conflicts
c 
c all     20760 100     12538 100    274509 100    108985 100      7067 100
c 
c  0          0   0         0   0         0   0         0   0         0   0 
c  1         91   0        41   0      2118   1       493   0         9   0 
c  2       4965  24      2577  21    130930  48     35022  32      2081  29 
c  3       9666  47<     5726  46<   122708  45<    56709  52<     3998  57<
c  4       4359  21      2846  23     15250   6     12843  12       772  11 
c  5       1288   6      1021   8      2667   1      2984   3       160   2 
c  6        285   1       224   2       693   0       723   1        40   1 
c  7         98   0        95   1       135   0       201   0         7   0 
c  8          4   0         4   0         4   0         5   0         0   0 
c  9          0   0         0   0         0   0         0   0         0   0 
c 10          2   0         2   0         2   0         2   0         0   0 
c 11          0   0         0   0         0   0         0   0         0   0 
c 12          1   0         1   0         1   0         2   0         0   0 
c 13          1   0         1   0         1   0         1   0         0   0 
c 14          0   0         0   0         0   0         0   0         0   0 
c 15          0   0         0   0         0   0         0   0         0   0 
c 
c avg             3.1           3.3           2.6           2.9           2.9
c std             1.0           1.0           0.7           0.8           0.7
c 
c 72107 decisions, 21597 conflicts, 2285.7 conflicts/sec
c 19253007 propagations, 2.0 megaprops/sec
c 9.4 seconds, 18.2 MB
c 
c    0.728   8% analysis
c    0.104   1% block
c    0.172   2% bump
c    0.000   0% card
c    1.092  12% cce
c    1.284  14% cliff
c    0.004   0% cutwidth
c    0.040   0% decide
c    0.000   0% force
c    0.288   3% gc
c    0.096   1% cgrclsr
c    0.080   1% decomp
c    0.072   1% defrag
c    2.640  28% elim
c    0.416   4% gauss
c    0.124   1% lift
c    0.204   2% mincls
c    0.012   0% phase
c    0.136   1% probe
c    0.008   0% reduce
c    0.044   0% restart
c    0.044   0% ternres
c    0.028   0% transred
c    0.296   3% unhide
c ==================================
c    0.012   0% preprocessing     0%
c    6.392  68% inprocessing    100%
c ==================================
c    6.404  68% simplifying
c    0.000   0% lookahead
c    3.044  32% search
c ==================================
c    9.449 100% all
c
s UNSATISFIABLE
